etc/upTests/___simple/muti_finds/0001.eprime.solution
language ESSENCE' 1.0
$ minion Nodes: 5
$ minion TotalTime: 0.000429
$ Savile Row TotalTime: 0.125
letting a_SetOccurrence be [false, true, false, true;int(1..4)]
letting b_SetOccurrence be [false, false, true, true;int(1..4)]
